;; ===================== PROJECTED CANON (QE) =====================
;; Each clause below is entailed by Proj = ∃W.F over the canonical vocabulary.
;; Units appear first for clarity; OR-clauses (SAT-filtered) follow.
;; ==================================================================

;; Unit Bool constraints (entailed)
(assert (not patient_has_diagnosis_of_peptic_ulcer_inthehistory))
(assert (not patient_has_clinical_signs_of_peptic_ulcer_now))
(assert (not patient_has_symptoms_of_peptic_ulcer_now))
(assert (not patient_has_finding_of_diabetic_poor_control_now))
(assert (not patient_has_finding_of_weight_decreased_inthepast3months))
(assert (not patient_has_finding_of_eating_disorder_inthehistory))
(assert (not patient_has_diagnosis_of_eating_disorder_now))
(assert (not patient_has_finding_of_cardiac_arrhythmia_now))
(assert (not patient_has_finding_of_symptomatic_congestive_heart_failure_now))
(assert (not patient_has_diagnosis_of_chronic_obstructive_lung_disease_now))
(assert (not patient_has_diagnosis_of_malignant_neoplastic_disease_now))
(assert (not patient_has_diagnosis_of_pneumonia_now))
(assert (not patient_has_finding_of_achalasia_now))
(assert (not patient_has_finding_of_barrett_s_esophagus_now))
(assert (not patient_has_finding_of_dysphagia_now))
(assert (not patient_has_finding_of_esophageal_diverticulum_now))
(assert (not patient_has_symptoms_of_esophageal_dysmotility_now))
(assert (not patient_has_finding_of_malignant_tumor_of_esophagus_now))
(assert (not patient_has_finding_of_stricture_of_esophagus_now))
(assert (not patient_has_finding_of_zenker_s_diverticulum_now))
